<number of tasks>
50

<cycle time>
1000

<order strength>
0.602


<task times>
1 129
2 32
3 247
4 49
5 247
6 173
7 56
8 161
9 490
10 202
11 75
12 104
13 58
14 223
15 72
16 190
17 140
18 73
19 86
20 421
21 522
22 410
23 258
24 69
25 171
26 528
27 58
28 83
29 423
30 233
31 235
32 23
33 216
34 183
35 184
36 58
37 231
38 497
39 44
40 474
41 237
42 179
43 34
44 471
45 48
46 282
47 62
48 31
49 191
50 263

<precedence relations>
1,6
2,8
3,7
3,14
3,15
4,9
4,10
4,11
5,9
5,10
5,11
6,12
7,13
8,14
9,14
9,15
10,14
10,15
11,14
11,15
12,18
13,17
14,16
14,18
14,19
15,18
15,19
16,20
17,21
18,21
18,22
19,21
20,23
21,25
21,27
22,24
22,25
22,26
22,27
23,30
24,31
25,28
25,32
25,33
25,37
26,29
27,32
27,47
28,34
29,35
30,37
31,37
32,36
32,46
33,38
33,42
33,45
34,41
35,39
36,40
37,42
37,43
38,41
38,43
38,46
39,44
40,45
42,46
43,47
43,49
44,48
45,49
45,50
46,49
46,50
47,50

<end>
